\* Primal *\
Minimize
OBJ: 158 x0 + 181 x1 + 111 x2 + 34 x3 + 148 x4 + 60 x5 + 174 x6 + 169 x7
 + 49 x8 + 68 x9
Subject To
_C1: 4 x0 + 5 x3 + 5 x4 + 8 x5 + 6 x6 + 3 x7 + 8 x8 + 3 x9 >= 445
_C10: x0 + x1 + 3 x2 + 6 x3 + 8 x4 + 6 x5 + 4 x6 + 2 x7 + 6 x8 + 4 x9 >= 311
_C11: 7 x0 + 7 x1 + 5 x2 + 4 x3 + 6 x4 + 8 x5 + x6 + 5 x7 + 8 x8 + 4 x9 >= 339
_C12: 6 x0 + 7 x2 + 6 x3 + 7 x4 + x5 + 3 x6 + 8 x7 + x8 + 9 x9 >= 456
_C13: 5 x0 + 7 x1 + 5 x2 + x3 + x4 + 5 x5 + 4 x7 + 6 x8 + 5 x9 >= 151
_C14: 4 x1 + 5 x2 + 3 x3 + 8 x4 + 6 x5 + 6 x6 + 8 x7 + 9 x8 + 8 x9 >= 407
_C15: 9 x0 + 8 x1 + 2 x2 + 9 x3 + x4 + 5 x5 + 8 x6 + 4 x7 + 7 x8 + 2 x9 >= 347
_C16: 6 x0 + 8 x2 + 6 x4 + 3 x5 + 7 x6 + 9 x7 + 6 x8 + 8 x9 >= 216
_C17: 7 x0 + x1 + 5 x2 + 5 x3 + 5 x4 + 2 x5 + 5 x6 + 9 x7 >= 317
_C18: 7 x0 + 4 x1 + x2 + 9 x3 + 9 x4 + x5 + 2 x6 + 8 x7 + x8 + 7 x9 >= 399
_C19: x0 + x1 + 7 x2 + 2 x3 + 8 x4 + 6 x5 + 4 x6 + x8 + 5 x9 >= 351
_C2: 6 x0 + 9 x1 + 4 x2 + 8 x3 + 6 x4 + 6 x5 + 4 x6 + 8 x7 + 5 x9 >= 177
_C20: 5 x0 + 8 x1 + 5 x2 + 7 x3 + 6 x4 + 4 x5 + 8 x6 + 5 x8 + 5 x9 >= 202
_C3: 5 x0 + 3 x1 + 2 x2 + 3 x3 + 3 x4 + 2 x5 + 9 x6 + 6 x7 + 5 x8 + 6 x9
 >= 336
_C4: 6 x2 + 9 x3 + x4 + 2 x5 + 6 x7 + 2 x8 + 2 x9 >= 412
_C5: 2 x0 + 2 x1 + x2 + x3 + x4 + 5 x5 + 2 x6 + 6 x7 + 8 x9 >= 228
_C6: x0 + 9 x1 + 3 x2 + 8 x3 + 8 x4 + 6 x5 + x6 + 8 x7 + 7 x8 + 2 x9 >= 252
_C7: 5 x0 + 9 x2 + 4 x3 + 8 x4 + 9 x5 + 7 x6 + 9 x7 + 8 x8 >= 274
_C8: 4 x0 + 6 x1 + 9 x3 + 9 x4 + 2 x5 + x6 + 3 x7 + 5 x8 + 2 x9 >= 227
_C9: 6 x0 + 6 x1 + 2 x2 + x3 + x5 + 9 x6 + 3 x7 + 5 x8 + x9 >= 219
End
